Traveling Salesman Problem/TSP_generados/Aleatorio1620390948_10.tsp
NAME: Aleatorio1620390948_10.tsp
COMMENT: Randomly generated scenario
TYPE: TSP
DIMENSION: 10
EDGE_WEIGHT_TYPE: ATT
NODE_COORD_SECTION
1 45.41 35.08
2 42.07 28.87
3 30.82 37.17
4 32.84 7.95
5 22.31 47.18
6 10.77 39.94
7 25.77 9.27
8 32.4 45.06
9 4.01 0.62
10 11.58 27.94
