Traveling Salesman Problem/TSP_generados/Aleatorio1620390948_10.opt.tour
NAME: Aleatorio1620390948_10.opt.tour
COMMENT: Optimal solution for Aleatorio1620390948_10 (147.62099324467798)
TYPE: TOUR
DIMENSION: 10
TOUR_SECTION
1 3 8 5 6 10 9 7 4 2
-1
EOF
